
Gurobi 11.0.3 (linux64) logging started Tue Apr 14 06:03:09 2026

Set parameter LogFile to value "tree/results/wine/wine_depth-4_run-1/Full MIP/LogFile_FullModel.txt"
Gurobi Optimizer version 11.0.3 build v11.0.3rc0 (linux64 - "CentOS Linux 7 (Core)")

CPU model: Intel(R) Xeon(R) Platinum 8260 CPU @ 2.40GHz, instruction set [SSE2|AVX|AVX2|AVX512]
Thread count: 96 physical cores, 192 logical processors, using up to 32 threads

Optimize a model with 28605 rows, 17721 columns and 394497 nonzeros
Model fingerprint: 0x73af62d8
Model has 2128 general constraints
Variable types: 11094 continuous, 6627 integer (6627 binary)
Coefficient statistics:
  Matrix range     [4e-03, 1e+04]
  Objective range  [8e-03, 1e+04]
  Bounds range     [1e+00, 4e+02]
  RHS range        [1e-04, 8e+02]

User MIP start produced solution with objective 0.969925 (0.18s)
Loaded user MIP start with objective 0.969925

Presolve added 2112 rows and 8511 columns
Presolve time: 0.68s
Presolved: 30717 rows, 26232 columns, 411470 nonzeros
Presolved model has 8512 SOS constraint(s)
Variable types: 11093 continuous, 15139 integer (15139 binary)

Deterministic concurrent LP optimizer: primal and dual simplex (primal and dual model)
Showing primal log only...

Root relaxation presolved: 30701 rows, 26216 columns, 411470 nonzeros


Root simplex log...

Iteration    Objective       Primal Inf.    Dual Inf.      Time
    5292   -0.0000000e+00   5.295564e+02   3.983708e+08      5s
    6739    1.0000000e+00   0.000000e+00   0.000000e+00      9s
    6739    1.0000000e+00   0.000000e+00   0.000000e+00      9s
Concurrent spin time: 3.35s (can be avoided by choosing Method=3)

Solved with primal simplex

Root relaxation: objective 1.000000e+00, 6739 iterations, 11.36 seconds (7.23 work units)
Total elapsed time = 15.70s (DegenMoves)

    Nodes    |    Current Node    |     Objective Bounds      |     Work
 Expl Unexpl |  Obj  Depth IntInf | Incumbent    BestBd   Gap | It/Node Time

     0     0    1.00000    0 1327    0.96992    1.00000  3.10%     -   18s
     0     2    1.00000    0 1327    0.96992    1.00000  3.10%     -   44s
     1     4    1.00000    1 1302    0.96992    1.00000  3.10%  1045   47s
     3     8    1.00000    2   53    0.96992    1.00000  3.10%   443   54s
     7    16    1.00000    3   57    0.96992    1.00000  3.10%   304   60s
    15    32    1.00000    4   57    0.96992    1.00000  3.10%   372   66s
    31    64    1.00000    5   61    0.96992    1.00000  3.10%   283   86s
    63    96    1.00000    6   59    0.96992    1.00000  3.10%   200   95s
    95   128    1.00000    7   57    0.96992    1.00000  3.10%   239  115s
   127   160    1.00000    8  102    0.96992    1.00000  3.10%   239  156s
H  128   160                       0.9774436    1.00000  2.31%   237  156s
H  131   160                       0.9849624    1.00000  1.53%   232  156s
H  159   192                       0.9924812    1.00000  0.76%   207  260s
   191   224    1.00000   10  861    0.99248    1.00000  0.76%   232  441s
   223   408    1.00000   11  907    0.99248    1.00000  0.76%   956  674s
   407  1005    1.00000   18  959    0.99248    1.00000  0.76%   648 1854s
  1004  2328    1.00000   20 1110    0.99248    1.00000  0.76%  1153 3600s
H 2184  2328                       1.0000000    1.00000  0.00%  1156 3600s

Explored 2327 nodes (2916027 simplex iterations) in 3600.38 seconds (3567.67 work units)
Thread count was 32 (of 192 available processors)

Solution count 5: 1 0.992481 0.984962 ... 0.969925

Time limit reached
Best objective 1.000000000000e+00, best bound 1.000000000000e+00, gap 0.0000%

User-callback calls 2651935, time in user-callback 25.21 sec
